c Maximum weighted clique instances generated from exactcolors.
c cutoff: 2267670.
c A clique of value > scalef (2267670) defines an improving stable sets for coloring.
p edge 40 0
n 1 2267669
n 2 2267669
n 3 2267669
n 4 2267669
n 5 2267669
n 6 2267669
n 7 2267669
n 8 2267669
n 9 2267669
n 10 2267669
n 11 2267669
n 12 2267669
n 13 2267669
n 14 2267669
n 15 2267669
n 16 2267669
n 17 2267669
n 18 2267669
n 19 2267669
n 20 2267669
n 21 2267669
n 22 2267669
n 23 2267669
n 24 2267669
n 25 2267669
n 26 2267669
n 27 2267669
n 28 2267669
n 29 2267669
n 30 2267669
n 31 2267669
n 32 2267669
n 33 2267669
n 34 2267669
n 35 2267669
n 36 2267669
n 37 2267669
n 38 2267669
n 39 2267669
n 40 2267669
